nN = 5;
nR = 25;
nH = 1;

a = [[18, 19, 19, 17, 24, 25, 24, 25, 25, 23, 20, 21, 25, 17, 25, 21, 25, 19, 23, 19, 20, 15, 25, 23, 17], [25, 17, 18, 16, 18, 15, 23, 20, 19, 22, 23, 18, 17, 16, 16, 24, 16, 23, 23, 24, 19, 17, 15, 17, 17], [17, 25, 15, 23, 21, 20, 24, 17, 21, 22, 22, 15, 18, 23, 17, 22, 20, 24, 19, 18, 15, 15, 18, 19, 19], [21, 16, 25, 23, 18, 21, 18, 16, 21, 21, 15, 21, 24, 23, 24, 23, 20, 25, 24, 18, 19, 23, 22, 22, 16], [24, 16, 24, 19, 16, 25, 23, 25, 17, 21, 21, 22, 17, 25, 19, 21, 23, 19, 17, 24, 19, 15, 20, 15, 20]];
c = [[[0, 0, 0, 0, 0, 0, 0, 0, 0, 0, 0, 0, 0, 0, 0, 0, 0, 0, 0, 0, 0, 0, 0, 0, 0], [34, 30, 34, 47, 45, 48, 36, 31, 31, 36, 49, 37, 42, 38, 31, 48, 40, 30, 42, 40, 39, 31, 46, 31, 49], [30, 48, 42, 34, 46, 45, 48, 48, 32, 40, 37, 47, 47, 47, 37, 41, 41, 37, 30, 47, 36, 30, 43, 36, 47], [39, 43, 45, 30, 42, 32, 46, 30, 30, 49, 42, 38, 45, 40, 38, 40, 37, 48, 34, 48, 44, 35, 41, 33, 33], [37, 32, 46, 40, 33, 30, 38, 47, 32, 36, 39, 41, 32, 49, 45, 47, 35, 38, 49, 46, 49, 39, 30, 45, 37]], [[0, 0, 0, 0, 0, 0, 0, 0, 0, 0, 0, 0, 0, 0, 0, 0, 0, 0, 0, 0, 0, 0, 0, 0, 0], [0, 0, 0, 0, 0, 0, 0, 0, 0, 0, 0, 0, 0, 0, 0, 0, 0, 0, 0, 0, 0, 0, 0, 0, 0], [43, 42, 49, 38, 49, 33, 48, 30, 30, 34, 46, 38, 45, 43, 48, 31, 46, 48, 37, 48, 48, 38, 30, 48, 38], [43, 48, 45, 50, 46, 42, 41, 47, 37, 34, 41, 32, 45, 32, 42, 41, 38, 49, 50, 43, 35, 49, 37, 39, 33], [46, 32, 39, 40, 47, 43, 42, 32, 47, 32, 39, 45, 41, 42, 30, 49, 45, 38, 46, 30, 35, 41, 39, 34, 30]], [[0, 0, 0, 0, 0, 0, 0, 0, 0, 0, 0, 0, 0, 0, 0, 0, 0, 0, 0, 0, 0, 0, 0, 0, 0], [0, 0, 0, 0, 0, 0, 0, 0, 0, 0, 0, 0, 0, 0, 0, 0, 0, 0, 0, 0, 0, 0, 0, 0, 0], [0, 0, 0, 0, 0, 0, 0, 0, 0, 0, 0, 0, 0, 0, 0, 0, 0, 0, 0, 0, 0, 0, 0, 0, 0], [45, 49, 47, 48, 47, 48, 32, 34, 42, 48, 34, 40, 42, 31, 42, 45, 44, 31, 44, 43, 39, 49, 35, 40, 38], [43, 40, 32, 42, 44, 34, 33, 31, 33, 48, 46, 47, 34, 38, 32, 45, 49, 50, 50, 39, 42, 44, 30, 38, 49]], [[0, 0, 0, 0, 0, 0, 0, 0, 0, 0, 0, 0, 0, 0, 0, 0, 0, 0, 0, 0, 0, 0, 0, 0, 0], [0, 0, 0, 0, 0, 0, 0, 0, 0, 0, 0, 0, 0, 0, 0, 0, 0, 0, 0, 0, 0, 0, 0, 0, 0], [0, 0, 0, 0, 0, 0, 0, 0, 0, 0, 0, 0, 0, 0, 0, 0, 0, 0, 0, 0, 0, 0, 0, 0, 0], [0, 0, 0, 0, 0, 0, 0, 0, 0, 0, 0, 0, 0, 0, 0, 0, 0, 0, 0, 0, 0, 0, 0, 0, 0], [38, 41, 49, 32, 32, 32, 36, 35, 44, 37, 33, 36, 43, 49, 30, 32, 42, 36, 36, 35, 30, 44, 34, 44, 39]], [[0, 0, 0, 0, 0, 0, 0, 0, 0, 0, 0, 0, 0, 0, 0, 0, 0, 0, 0, 0, 0, 0, 0, 0, 0], [0, 0, 0, 0, 0, 0, 0, 0, 0, 0, 0, 0, 0, 0, 0, 0, 0, 0, 0, 0, 0, 0, 0, 0, 0], [0, 0, 0, 0, 0, 0, 0, 0, 0, 0, 0, 0, 0, 0, 0, 0, 0, 0, 0, 0, 0, 0, 0, 0, 0], [0, 0, 0, 0, 0, 0, 0, 0, 0, 0, 0, 0, 0, 0, 0, 0, 0, 0, 0, 0, 0, 0, 0, 0, 0], [0, 0, 0, 0, 0, 0, 0, 0, 0, 0, 0, 0, 0, 0, 0, 0, 0, 0, 0, 0, 0, 0, 0, 0, 0]]];

q = [[[25], [23], [5], [13], [6], [15], [24], [9], [17], [11], [5], [6], [8], [14], [9], [9], [21], [23], [13], [8], [22], [20], [24], [15], [20]], [[18], [8], [5], [20], [8], [7], [13], [17], [9], [16], [19], [11], [6], [12], [25], [23], [9], [21], [11], [15], [24], [23], [15], [21], [12]], [[7], [25], [13], [9], [16], [16], [8], [17], [5], [17], [10], [18], [21], [25], [17], [24], [20], [16], [9], [18], [18], [18], [16], [6], [24]], [[25], [11], [8], [7], [25], [20], [24], [16], [9], [15], [22], [10], [17], [6], [22], [11], [19], [20], [14], [14], [8], [18], [22], [18], [22]], [[7], [16], [20], [18], [13], [10], [15], [20], [5], [19], [11], [6], [11], [23], [15], [21], [15], [20], [21], [11], [9], [25], [17], [18], [12]]];
Q = [[58], [58], [62], [64], [60]];
